(set-logic QF_BV)
(declare-fun CLK_0 () (_ BitVec 1))
(declare-fun CLK_1 () (_ BitVec 1))
(declare-fun STATE_0 () (_ BitVec 4))
(declare-fun STATE_1 () (_ BitVec 4))
(declare-fun RESET_0 () (_ BitVec 1))
(declare-fun RESET_1 () (_ BitVec 1))
(declare-fun TIMETCK_0 () (_ BitVec 1))
(define-fun $e1 () (_ BitVec 4) (_ bv0 4))
(define-fun $e2 () (_ BitVec 4) (_ bv14 4))
(define-fun $e3 () (_ BitVec 4) (_ bv2 4))
(define-fun $e4 () (_ BitVec 1) (ite (= CLK_0 CLK_1) #b1 #b0))
(define-fun $e5 () (_ BitVec 1) (ite (= RESET_0 RESET_1) #b1 #b0))
(define-fun $e6 () (_ BitVec 1) (bvand $e4 $e5))
(define-fun $e7 () (_ BitVec 1) (ite (= STATE_1 $e1) #b1 #b0))
(define-fun $e8 () (_ BitVec 1) (bvand CLK_1 (bvnot $e4)))
(define-fun $e9 () (_ BitVec 1) (ite (= STATE_0 $e1) #b1 #b0))
(define-fun $e10 () (_ BitVec 1) (ite (= STATE_1 (bvnot $e2)) #b1 #b0))
(define-fun $e11 () (_ BitVec 1) (ite (= STATE_0 STATE_1) #b1 #b0))
(define-fun $e12 () (_ BitVec 1) (bvand TIMETCK_0 (bvnot $e10)))
(define-fun $e13 () (_ BitVec 1) (ite (= STATE_0 (bvnot $e2)) #b1 #b0))
(define-fun $e14 () (_ BitVec 1) (ite (= STATE_1 $e3) #b1 #b0))
(define-fun $e15 () (_ BitVec 1) (ite (= STATE_0 $e3) #b1 #b0))
(define-fun $e16 () (_ BitVec 1) (bvand (bvnot $e7) $e15))
(define-fun $e17 () (_ BitVec 1) (bvand (bvnot $e11) (bvnot $e15)))
(define-fun $e18 () (_ BitVec 1) (bvand (bvnot $e16) (bvnot $e17)))
(define-fun $e19 () (_ BitVec 1) (bvand $e13 (bvnot $e14)))
(define-fun $e20 () (_ BitVec 1) (bvand (bvnot $e13) (bvnot $e18)))
(define-fun $e21 () (_ BitVec 1) (bvand (bvnot $e19) (bvnot $e20)))
(define-fun $e22 () (_ BitVec 1) (bvand (bvnot TIMETCK_0) (bvnot $e7)))
(define-fun $e23 () (_ BitVec 1) (bvand (bvnot $e12) (bvnot $e22)))
(define-fun $e24 () (_ BitVec 1) (bvand $e9 (bvnot $e23)))
(define-fun $e25 () (_ BitVec 1) (bvand (bvnot $e9) (bvnot $e21)))
(define-fun $e26 () (_ BitVec 1) (bvand (bvnot $e24) (bvnot $e25)))
(define-fun $e27 () (_ BitVec 1) (bvand $e8 (bvnot $e26)))
(define-fun $e28 () (_ BitVec 1) (bvand (bvnot $e8) (bvnot $e11)))
(define-fun $e29 () (_ BitVec 1) (bvand (bvnot $e27) (bvnot $e28)))
(define-fun $e30 () (_ BitVec 1) (bvand RESET_1 (bvnot $e7)))
(define-fun $e31 () (_ BitVec 1) (bvand (bvnot RESET_1) (bvnot $e29)))
(define-fun $e32 () (_ BitVec 1) (bvand $e6 (bvnot $e11)))
(define-fun $e33 () (_ BitVec 1) (bvand (bvnot $e6) $e30))
(assert (not (= (bvnot $e32) #b0)))
(assert (not (= (bvnot $e33) #b0)))
(assert (not (= (bvnot $e31) #b0)))
(check-sat)
(exit)
